38 22
3 557
7 133
3 879
21 848
14 153
11 79
21 922
18 654
8 885
6 297
8 305
11 197
16 107
13 993
21 765
10 714
7 756
2 663
5 325
3 927
15 38
17 397
17 656
18 904
2 684
20 542
10 112
12 75
13 349
3 145
6 98
9 879
20 928
1 339
4 687
17 821
3 724
21 220
